p cnf 14 64
3 4 5 0
-5 -12 13 0
-8 -12 -14 0
-1 7 -10 0
-1 10 -14 0
1 -5 -8 0
1 -8 -13 0
6 8 -14 0
1 4 7 0
1 6 -9 0
4 -11 14 0
5 6 9 0
-9 11 -12 0
-3 -8 11 0
2 6 9 0
4 -6 -12 0
3 -4 -14 0
-2 -4 13 0
2 5 -10 0
-4 -5 -7 0
3 8 -9 0
-3 7 -9 0
-7 -8 -13 0
7 11 -14 0
1 -2 12 0
-6 -10 -11 0
6 -12 -13 0
4 5 -8 0
6 -10 12 0
3 9 13 0
-2 3 -9 0
1 -8 -11 0
-6 -10 -12 0
-3 -4 7 0
5 -10 13 0
4 -7 10 0
-7 8 11 0
-5 7 -11 0
-2 -10 -11 0
-4 -9 12 0
7 -12 13 0
3 -5 -7 0
-4 -5 14 0
8 10 -14 0
-10 11 13 0
-8 -9 13 0
3 -6 -14 0
2 -4 9 0
6 7 -12 0
-3 4 6 0
4 5 -10 0
3 9 -13 0
-12 13 -14 0
-7 -9 10 0
-7 10 -11 0
1 -2 5 0
-3 5 6 0
4 -10 -14 0
-2 -6 13 0
-4 -5 -9 0
-3 6 13 0
2 -3 -12 0
-10 -12 -13 0
1 4 -7 0
